data; 

# include the constants
include MarkovActvCons.dat;

# include the simulated states and choices
include MarkovActvMC.dat

# initial EV
param initEV :=   0.0;

# intial value of VoT
param initValueOfTime :=  20.0;

# initial values of parameters
param initU0 :=
	1	0.5
	2	0.1
	3	0.2
;
param initUm :=
	1	200
	2	500
	3	300
;
param initGamma :=
	1	0.001
	2	0.005
	3	0.005
;
param initXi :=
	1	480
	2	600
	3	100
;